Data path: /scratch/opt/lxu/CFLG/benchmarks/random_A
Instance: r_15_0.4_45.txt
Result path: /scratch/opt/lxu/CFLG/results/random_A
Solver: Gurobi
Time limit: 7200
Formulation: LEFPAD
Cover: Large
julia --project=. src/main.jl /scratch/opt/lxu/CFLG/benchmarks/random_A r_15_0.4_45.txt /scratch/opt/lxu/CFLG/results/random_A Gurobi 7200 LEFPAD Large
The latest version of Julia in the `release` channel is 1.11.6+0.x64.linux.gnu. You currently have `1.11.4+0.x64.linux.gnu` installed. Run:

  juliaup update

in your terminal shell to install Julia 1.11.6+0.x64.linux.gnu and update the `release` channel to that version.
/scratch/opt/lxu/CFLG/benchmarks/random_A Gurobi 7200.0 /scratch/opt/lxu/CFLG/results/random_A r_15_0.4_45.txt LEFPAD Large
/scratch/opt/lxu/CFLG/benchmarks/random_A/r_15_0.4_45.txt

 read graph
data loaded

problem_graph/original graph: node: 15/15 edge: 45/45 dlt: 1.3498912760798591 break_avg_len: 0.6749456380399296 break_max_len: 0.9953368121261363Vbar/V, Ebar/E(15, 15, 45, 45)
Set parameter TokenServer to value "solice01.zib.de"
Set parameter Threads to value 1
Set parameter OutputFlag to value 1
Gurobi Optimizer version 12.0.1 build v12.0.1rc0 (linux64 - "Debian GNU/Linux 12 (bookworm)")

CPU model: Intel(R) Xeon(R) Gold 5122 CPU @ 3.60GHz, instruction set [SSE2|AVX|AVX2|AVX512]
Thread count: 8 physical cores, 16 logical processors, using up to 1 threads

Non-default parameters:
Threads  1

Optimize a model with 60 rows, 135 columns and 225 nonzeros
Model fingerprint: 0xecba418b
Coefficient statistics:
  Matrix range     [1e+00, 1e+00]
  Objective range  [1e+00, 1e+00]
  Bounds range     [1e+00, 1e+00]
  RHS range        [1e+00, 1e+00]
Presolve time: 0.00s
Presolved: 60 rows, 135 columns, 225 nonzeros

Iteration    Objective       Primal Inf.    Dual Inf.      Time
       0    4.5000000e+01   5.000000e+01   0.000000e+00      0s
      40    1.5000000e+01   0.000000e+00   0.000000e+00      0s

Solved in 40 iterations and 0.00 seconds (0.00 work units)
Optimal objective  1.500000000e+01

User-callback calls 84, time in user-callback 0.00 sec
elapsed CPU time: 1.290683 seconds
Set parameter TokenServer to value "solice01.zib.de"
Set parameter Threads to value 1
Set parameter OutputFlag to value 1
Set parameter MIPGap to value 0.0001
Set parameter TimeLimit to value 7198.709317

 more cuts: false 1.3498912760798591 false
is_attach:trueformulation:LEFPAD0 45 15

 model loaded

Gurobi Optimizer version 12.0.1 build v12.0.1rc0 (linux64 - "Debian GNU/Linux 12 (bookworm)")

CPU model: Intel(R) Xeon(R) Gold 5122 CPU @ 3.60GHz, instruction set [SSE2|AVX|AVX2|AVX512]
Thread count: 8 physical cores, 16 logical processors, using up to 1 threads

Non-default parameters:
TimeLimit  7198.709317
Threads  1

Optimize a model with 4295 rows, 2738 columns and 12660 nonzeros
Model fingerprint: 0x347b84d7
Variable types: 1369 continuous, 1369 integer (1369 binary)
Coefficient statistics:
  Matrix range     [1e-03, 1e+00]
  Objective range  [1e+00, 1e+00]
  Bounds range     [3e-01, 1e+00]
  RHS range        [3e-01, 7e+00]
Found heuristic solution: objective 12.0000000
Presolve removed 1357 rows and 212 columns
Presolve time: 0.06s
Presolved: 2938 rows, 2526 columns, 11339 nonzeros
Variable types: 1242 continuous, 1284 integer (1284 binary)

Root relaxation: objective 1.000000e+00, 1397 iterations, 0.03 seconds (0.04 work units)

    Nodes    |    Current Node    |     Objective Bounds      |     Work
 Expl Unexpl |  Obj  Depth IntInf | Incumbent    BestBd   Gap | It/Node Time

     0     0    1.00000    0   65   12.00000    1.00000  91.7%     -    0s
H    0     0                       2.0000000    1.00000  50.0%     -    0s
     0     0    1.00000    0   62    2.00000    1.00000  50.0%     -    0s
     0     0    1.00000    0   61    2.00000    1.00000  50.0%     -    0s
     0     0    1.00000    0   43    2.00000    1.00000  50.0%     -    0s
     0     0    1.00000    0   41    2.00000    1.00000  50.0%     -    0s

Cutting planes:
  Gomory: 2
  Implied bound: 2
  MIR: 1
  RLT: 7
  Relax-and-lift: 1
  BQP: 23

Explored 1 nodes (7905 simplex iterations) in 0.49 seconds (0.45 work units)
Thread count was 1 (of 16 available processors)

Solution count 2: 2 12 

Optimal solution found (tolerance 1.00e-04)
Best objective 2.000000000000e+00, best bound 2.000000000000e+00, gap 0.0000%

User-callback calls 507, time in user-callback 0.00 sec

 sepatime0 0 0
2.0
Stat(MathOptInterface.OPTIMAL, 2.0, 2.0, 0.0, 0.0, 1.290683, 0.48645806312561035, 1, Main.CFLG.LEFPAD, "", #undef)
